project_3/uCE-Q-pulp.sol
Problem:    
Rows:       5
Columns:    4
Non-zeros:  12
Status:     OPTIMAL
Objective:  OBJ = 10.5 (MAXimum)

   No.   Row name   St   Activity     Lower bound   Upper bound    Marginal
------ ------------ -- ------------- ------------- ------------- -------------
     1 _C1          NS             1             1             =          10.5 
     2 _C2          NL             0             0                       -0.75 
     3 _C3          B           0.25             0               
     4 _C4          NL             0             0                       -0.75 
     5 _C5          B           0.25             0               

   No. Column name  St   Activity     Lower bound   Upper bound    Marginal
------ ------------ -- ------------- ------------- ------------- -------------
     1 Action_0_Probability_Put
                    B            0.5             0             1 
     2 Action_1_Probability_North
                    B           0.25             0             1 
     3 Action_2_Probability_East
                    B           0.25             0             1 
     4 Action_3_Probability_South
                    NL             0             0             1         -10.5 

Karush-Kuhn-Tucker optimality conditions:

KKT.PE: max.abs.err = 0.00e+00 on row 0
        max.rel.err = 0.00e+00 on row 0
        High quality

KKT.PB: max.abs.err = 0.00e+00 on row 0
        max.rel.err = 0.00e+00 on row 0
        High quality

KKT.DE: max.abs.err = 0.00e+00 on column 0
        max.rel.err = 0.00e+00 on column 0
        High quality

KKT.DB: max.abs.err = 0.00e+00 on row 0
        max.rel.err = 0.00e+00 on row 0
        High quality

End of output
